rc1_10_3

VEHICLE
NUMBER   CAPACITY
250     200

CUSTOMER
CUST NO. XCOORD.  YCOORD.  DEMAND  READY TIME DUE DATE  SERVICE TIME

0   250    250     0     0    1821     0
879 53 204 8 1055 1085 10
919 61 214 4 342 372 10
80 34 169 11 484 514 10
832 46 163 8 0 1590 10
995 18 225 8 0 1578 10
47 41 232 16 0 1602 10
305 111 178 18 156 186 10
313 30 155 9 1280 1310 10
43 111 192 11 1199 1229 10
510 21 146 21 487 517 10
462 43 135 31 0 1575 10
970 13 214 21 0 1572 10
425 103 177 28 626 656 10
748 44 115 24 0 1565 10
536 105 181 19 0 1651 10
772 89 185 16 600 630 10
614 39 162 18 565 595 10
177 7 194 29 0 1562 10
786 47 208 30 226 256 10
27 130 140 17 194 224 10
127 0 188 26 0 1554 10
566 68 160 21 1136 1166 10
50 86 199 23 0 1640 10
694 31 175 24 247 277 10
688 57 183 15 0 1607 10
